
  22   10
  10   10   10   10   10   10   10   10   10   10

   0   0   0   0   0   0   0   0   0   0   0   4 2 5 20 21 
   5  10  10  10  10  10  10  10  10  10  10   2 19 3 
  10  10  10  10  10  10  10  10  10  10  10   1 4 
   9  10  10  10  10  10  10  10  10  10  10   1 6 
   9  10  10  10  10  10  10  10  10  10  10   1 6 
  10  10  10  10  10  10  10  10  10  10  10   1 7 
   2  10  10  10  10  10  10  10  10  10  10   1 8 
   5  10  10  10  10  10  10  10  10  10  10   2 18 9 
   1  10  10  10  10  10  10  10  10  10  10   1 10 
   1  10  10  10  10  10  10  10  10  10  10   2 17 11 
   9  10  10  10  10  10  10  10  10  10  10   1 12 
   5  10  10  10  10  10  10  10  10  10  10   1 13 
   4  10  10  10  10  10  10  10  10  10  10   1 14 
  10  10  10  10  10  10  10  10  10  10  10   1 15 
   4  10  10  10  10  10  10  10  10  10  10   1 16 
  10  10  10  10  10  10  10  10  10  10  10   1 22
   6  10  10  10  10  10  10  10  10  10  10   1 22
   9  10  10  10  10  10  10  10  10  10  10   1 22
   2  10  10  10  10  10  10  10  10  10  10   1 22
   2  10  10  10  10  10  10  10  10  10  10   1 22
   7  10  10  10  10  10  10  10  10  10  10   1 22
   0   0   0   0   0   0   0   0   0   0   0   0 
